W=4;
H=4;

MAX_TIME=8;
MAX_TRACKS=5;

TARGET=(1,4);

TRAINS=[(3,1,TOP),(4,3,LEFT)];
DECOYS=[];

INIT_POS=[
(1,4,STRAIGHT_RL),
(2,1,STRAIGHT_TD),
(3,1,STRAIGHT_TD),
(4,3,STRAIGHT_RL),
(2,2,ROCK),
];
TUNNEL_PAIRS=[];

GATES=[];
ACTIVATIONS=[];

DSWITCHES=[];

STATIONS=[
  (2,1,1),
];

SEMAPHORE_SUPPLY=0;
